p edge 50 131
e 1 4
e 1 8
e 1 15
e 1 27
e 1 47
e 1 48
e 2 29
e 2 37
e 2 40
e 2 41
e 2 43
e 3 7
e 3 32
e 3 34
e 3 41
e 3 44
e 3 46
e 3 49
e 4 7
e 4 14
e 4 46
e 4 47
e 5 15
e 5 18
e 6 19
e 6 22
e 6 30
e 7 8
e 7 12
e 7 14
e 7 16
e 7 24
e 7 27
e 7 36
e 7 40
e 7 43
e 8 12
e 8 16
e 8 23
e 8 25
e 8 44
e 8 47
e 9 25
e 9 33
e 9 34
e 9 37
e 9 43
e 9 44
e 10 18
e 10 27
e 10 28
e 10 32
e 10 34
e 11 19
e 11 35
e 11 47
e 12 13
e 12 15
e 12 23
e 12 34
e 12 38
e 13 18
e 13 28
e 13 31
e 13 39
e 13 44
e 14 35
e 14 41
e 14 43
e 15 20
e 15 25
e 15 37
e 16 19
e 16 33
e 16 36
e 16 40
e 16 45
e 17 23
e 17 24
e 17 26
e 17 34
e 18 32
e 19 21
e 19 22
e 19 24
e 19 27
e 19 29
e 19 32
e 19 38
e 20 36
e 20 41
e 20 47
e 20 48
e 21 23
e 21 32
e 21 36
e 21 45
e 22 36
e 23 25
e 23 47
e 25 30
e 25 32
e 25 34
e 25 37
e 25 40
e 25 50
e 26 42
e 26 43
e 27 28
e 27 32
e 27 37
e 27 50
e 28 34
e 29 30
e 29 31
e 29 36
e 30 36
e 31 44
e 32 37
e 32 38
e 33 44
e 34 40
e 35 40
e 36 46
e 36 47
e 39 50
e 40 48
e 41 45
e 43 48
e 45 46
e 45 48
